149	32	4	38	
24	14	17	11

0	0	0	0	0	0	3	1	2	3
1	0	10	0	0	4	3	4	5	7
2	0	0	0	5	8	3	9	14	21
3	0	4	0	0	10	2	6	22
4	0	0	3	0	8	1	10
5	0	0	2	0	4	3	8	10	11
6	9	0	0	0	9	1	25
7	0	0	9	0	2	3	15	17	23
8	2	0	0	0	2	1	27
9	0	0	8	0	2	1	18
10	0	2	0	0	3	1	25
11	0	7	0	0	4	2	12	13
12	6	0	0	0	8	2	16	29
13	9	0	0	0	1	1	18
14	10	0	0	0	4	1	27
15	10	0	0	0	1	2	20	28
16	0	0	2	0	9	1	21
17	0	3	0	0	10	2	19	26
18	0	6	0	0	6	1	24
19	3	0	0	0	5	1	27
20	0	0	0	6	3	1	25
21	2	0	0	0	6	1	30
22	0	0	10	0	10	1	30
23	5	0	0	0	1	2	24	30
24	0	0	0	3	2	2	26	28
25	0	0	7	0	3	1	26
26	9	0	0	0	6	1	29
27	0	10	0	0	3	1	28
28	0	0	0	7	4	1	31
29	0	0	10	0	8	1	31
30	0	0	1	0	3	1	31
31	0	0	0	0	0	0
